9,1,9,2,3,3,1,4,7,5,2,7,9,8,4,8,6,10,4,10;6,1,10,3,4,3,3,4,9,5,8,5,8,7,10,9,8,9,3,10;5,1,7,2,1,3,2,5,8,4,9,6,6,6,10,7,7,7,3,9,5,9,10,10;10,1,2,2,9,3,8,3,7,4,4,5,1,7,6,9,1,10;1,1,8,1,2,4,7,3,4,4,5,5,9,7,10,8,5,8,9,10;2,1,10,2,3,2,6,2,6,3,3,6,8,6,6,7,4,7,7,8;2,3,8,2,3,5,10,6,4,6,5,7,1,9,7,9,7,10;4,1,9,4,10,5,1,5,1,6,5,6,1,8,2,9,5,10;7,1,1,2,5,2,10,4,5,4,6,5,2,6,7,6,2,8,9,9,8,10;3,1,4,2,5,3,6,4,3,7,3,8,6,8,8,8,4,9,2,10;
